NAME: ACTUAL_TOURS/amz2246
TYPE: TOUR
COMMENT: RouteID_edb96e80-6de5-466b-bd6c-679386a87c21
DIMENSION: 132
TOUR_SECTION
123
1
90
37
86
50
69
106
68
119
93
97
95
67
46
11
120
59
2
5
13
43
52
29
88
110
80
121
58
99
6
113
74
76
57
65
15
21
122
82
107
62
28
71
41
30
18
102
124
9
85
129
38
12
79
109
84
17
118
108
66
130
117
98
10
39
4
91
48
34
104
36
54
61
47
105
27
44
115
20
92
101
87
35
19
55
7
116
132
56
23
103
70
114
128
89
83
22
94
72
78
3
40
126
111
8
24
100
45
51
33
81
42
31
53
25
14
112
49
64
16
73
26
75
63
131
77
96
32
125
127
60
-1
EOF
